SIZE = 12,
30,15,9,4,6,9,10,8,9,3,15,
5,20,35,53,12,50,30,10,32,6,
13,21,40,7,30,31,14,32,9,
11,29,5,6,27,35,21,25,
8,12,7,17,13,8,14,
30,20,2,7,3,15,
20,50,31,40,21,
40,34,25,32,
4,5,15,
10,4,
16,
NOTE = 